data/processed_heuristic-threshold/instances/1/9/ds_604_courier_487/pairwise.tsp
NAME: ds_604_courier_487
TYPE: TSP
COMMENT: nil
DIMENSION: 10
EDGE_WEIGHT_TYPE: EXPLICIT
EDGE_WEIGHT_FORMAT: FULL_MATRIX
EDGE_WEIGHT_SECTION
9999 3100 3051 3118 2783 3714 2469 980 1752 1022 
3100 9999 120 289 492 675 898 2668 1931 2438 
3051 120 9999 188 380 773 934 2588 1832 2360 
3118 289 188 9999 350 844 1105 2599 1803 2377 
2783 492 380 350 9999 1151 988 2249 1462 2027 
3714 675 773 844 1151 9999 1323 3335 2604 3103 
2469 898 934 1105 988 1323 9999 2300 1830 2064 
980 2668 2588 2599 2249 3335 2300 9999 907 238 
1752 1931 1832 1803 1462 2604 1830 907 9999 751 
1022 2438 2360 2377 2027 3103 2064 238 751 9999 
