data/processed_heuristic-threshold/instances/1/9/ds_604_courier_487/pairwise.sol
10
0 6 5 1 2 3 4 8 9 7 
